153
320
39
35
36
67
26
188
162
12
17
389
20
48
142
119
190
61
232
120
106
324
62
104
118
208
66
23
184
79
47
0
241
80
48
0
62
14
61
186
15
25
80
76
85
64
500
134
39
114
20
70
0
91
209
0
230
25
91
46
55
17
51
373
67
98
14
28
148
55
39
26
0
16
134
214
91
73
57
11
16
18
100
279
34
17
205
80
0
121
0
433
60
187
29
33
297
125
41
25
